Minimize
  obj: x0 + x1 + x2 + x3

Subject To
  c0: x1 + x2 = 29
  c1: x0 + x1 + x2 = 29
  c2: x2 = 11
  c3: x3 = 11
  c4: x0 + x1 + x2 + x3 = 40

Bounds
  x0 >= 0
  x1 >= 0
  x2 >= 0
  x3 >= 0

Generals
  x0 x1 x2 x3

End
